r = [
0,161,177,69,11,21,57,101,140,34,59,98,172,83,76,38,182,154,28,141,41,177,103,37,165,53,0
];
p = [
0,5,28,4,23,10,25,3,27,13,4,9,2,30,15,6,11,29,4,20,23,22,21,17,11,19,0
];
e = [
0,13,8,12,16,17,16,11,20,7,19,18,8,4,13,4,10,18,10,18,18,8,16,13,20,6,0
];
d = [
0,344,310,324,200,164,218,375,236,279,174,265,455,223,219,211,292,271,181,417,212,407,215,320,318,212,456
];
d_bar = [
0,347,324,326,212,169,231,377,250,286,176,270,456,238,227,214,298,286,183,427,224,418,226,329,324,222,456
];
w = [
0,4.333333333,0.571428571,6,1.333333333,3.4,1.230769231,5.5,1.428571429,1,9.5,3.6,8,0.266666667,1.625,1.333333333,1.666666667,1.2,5,1.8,1.5,0.727272727,1.454545455,1.444444444,3.333333333,0.6,0
];
